c Lonely Runner exact improper-fiber query
c k=14
c p=29
c input_level=1
c multiplier=15
c parent=1 2 3 4 5 6 7 8 9 10 11 12 13 14
c symmetry_case=noncoprime
c SAT means a normalized improper level-15 lift exists
c UNSAT excludes the complete noncoprime symmetry branch
p cnf 210 1842
1 2 3 4 5 6 7 8 9 10 11 12 13 14 15 0
-1 -2 0
-1 -3 0
-1 -4 0
-1 -5 0
-1 -6 0
-1 -7 0
-1 -8 0
-1 -9 0
-1 -10 0
-1 -11 0
-1 -12 0
-1 -13 0
-1 -14 0
-1 -15 0
-2 -3 0
-2 -4 0
-2 -5 0
-2 -6 0
-2 -7 0
-2 -8 0
-2 -9 0
-2 -10 0
-2 -11 0
-2 -12 0
-2 -13 0
-2 -14 0
-2 -15 0
-3 -4 0
-3 -5 0
-3 -6 0
-3 -7 0
-3 -8 0
-3 -9 0
-3 -10 0
-3 -11 0
-3 -12 0
-3 -13 0
-3 -14 0
-3 -15 0
-4 -5 0
-4 -6 0
-4 -7 0
-4 -8 0
-4 -9 0
-4 -10 0
-4 -11 0
-4 -12 0
-4 -13 0
-4 -14 0
-4 -15 0
-5 -6 0
-5 -7 0
-5 -8 0
-5 -9 0
-5 -10 0
-5 -11 0
-5 -12 0
-5 -13 0
-5 -14 0
-5 -15 0
-6 -7 0
-6 -8 0
-6 -9 0
-6 -10 0
-6 -11 0
-6 -12 0
-6 -13 0
-6 -14 0
-6 -15 0
-7 -8 0
-7 -9 0
-7 -10 0
-7 -11 0
-7 -12 0
-7 -13 0
-7 -14 0
-7 -15 0
-8 -9 0
-8 -10 0
-8 -11 0
-8 -12 0
-8 -13 0
-8 -14 0
-8 -15 0
-9 -10 0
-9 -11 0
-9 -12 0
-9 -13 0
-9 -14 0
-9 -15 0
-10 -11 0
-10 -12 0
-10 -13 0
-10 -14 0
-10 -15 0
-11 -12 0
-11 -13 0
-11 -14 0
-11 -15 0
-12 -13 0
-12 -14 0
-12 -15 0
-13 -14 0
-13 -15 0
-14 -15 0
16 17 18 19 20 21 22 23 24 25 26 27 28 29 30 0
-16 -17 0
-16 -18 0
-16 -19 0
-16 -20 0
-16 -21 0
-16 -22 0
-16 -23 0
-16 -24 0
-16 -25 0
-16 -26 0
-16 -27 0
-16 -28 0
-16 -29 0
-16 -30 0
-17 -18 0
-17 -19 0
-17 -20 0
-17 -21 0
-17 -22 0
-17 -23 0
-17 -24 0
-17 -25 0
-17 -26 0
-17 -27 0
-17 -28 0
-17 -29 0
-17 -30 0
-18 -19 0
-18 -20 0
-18 -21 0
-18 -22 0
-18 -23 0
-18 -24 0
-18 -25 0
-18 -26 0
-18 -27 0
-18 -28 0
-18 -29 0
-18 -30 0
-19 -20 0
-19 -21 0
-19 -22 0
-19 -23 0
-19 -24 0
-19 -25 0
-19 -26 0
-19 -27 0
-19 -28 0
-19 -29 0
-19 -30 0
-20 -21 0
-20 -22 0
-20 -23 0
-20 -24 0
-20 -25 0
-20 -26 0
-20 -27 0
-20 -28 0
-20 -29 0
-20 -30 0
-21 -22 0
-21 -23 0
-21 -24 0
-21 -25 0
-21 -26 0
-21 -27 0
-21 -28 0
-21 -29 0
-21 -30 0
-22 -23 0
-22 -24 0
-22 -25 0
-22 -26 0
-22 -27 0
-22 -28 0
-22 -29 0
-22 -30 0
-23 -24 0
-23 -25 0
-23 -26 0
-23 -27 0
-23 -28 0
-23 -29 0
-23 -30 0
-24 -25 0
-24 -26 0
-24 -27 0
-24 -28 0
-24 -29 0
-24 -30 0
-25 -26 0
-25 -27 0
-25 -28 0
-25 -29 0
-25 -30 0
-26 -27 0
-26 -28 0
-26 -29 0
-26 -30 0
-27 -28 0
-27 -29 0
-27 -30 0
-28 -29 0
-28 -30 0
-29 -30 0
31 32 33 34 35 36 37 38 39 40 41 42 43 44 45 0
-31 -32 0
-31 -33 0
-31 -34 0
-31 -35 0
-31 -36 0
-31 -37 0
-31 -38 0
-31 -39 0
-31 -40 0
-31 -41 0
-31 -42 0
-31 -43 0
-31 -44 0
-31 -45 0
-32 -33 0
-32 -34 0
-32 -35 0
-32 -36 0
-32 -37 0
-32 -38 0
-32 -39 0
-32 -40 0
-32 -41 0
-32 -42 0
-32 -43 0
-32 -44 0
-32 -45 0
-33 -34 0
-33 -35 0
-33 -36 0
-33 -37 0
-33 -38 0
-33 -39 0
-33 -40 0
-33 -41 0
-33 -42 0
-33 -43 0
-33 -44 0
-33 -45 0
-34 -35 0
-34 -36 0
-34 -37 0
-34 -38 0
-34 -39 0
-34 -40 0
-34 -41 0
-34 -42 0
-34 -43 0
-34 -44 0
-34 -45 0
-35 -36 0
-35 -37 0
-35 -38 0
-35 -39 0
-35 -40 0
-35 -41 0
-35 -42 0
-35 -43 0
-35 -44 0
-35 -45 0
-36 -37 0
-36 -38 0
-36 -39 0
-36 -40 0
-36 -41 0
-36 -42 0
-36 -43 0
-36 -44 0
-36 -45 0
-37 -38 0
-37 -39 0
-37 -40 0
-37 -41 0
-37 -42 0
-37 -43 0
-37 -44 0
-37 -45 0
-38 -39 0
-38 -40 0
-38 -41 0
-38 -42 0
-38 -43 0
-38 -44 0
-38 -45 0
-39 -40 0
-39 -41 0
-39 -42 0
-39 -43 0
-39 -44 0
-39 -45 0
-40 -41 0
-40 -42 0
-40 -43 0
-40 -44 0
-40 -45 0
-41 -42 0
-41 -43 0
-41 -44 0
-41 -45 0
-42 -43 0
-42 -44 0
-42 -45 0
-43 -44 0
-43 -45 0
-44 -45 0
46 47 48 49 50 51 52 53 54 55 56 57 58 59 60 0
-46 -47 0
-46 -48 0
-46 -49 0
-46 -50 0
-46 -51 0
-46 -52 0
-46 -53 0
-46 -54 0
-46 -55 0
-46 -56 0
-46 -57 0
-46 -58 0
-46 -59 0
-46 -60 0
-47 -48 0
-47 -49 0
-47 -50 0
-47 -51 0
-47 -52 0
-47 -53 0
-47 -54 0
-47 -55 0
-47 -56 0
-47 -57 0
-47 -58 0
-47 -59 0
-47 -60 0
-48 -49 0
-48 -50 0
-48 -51 0
-48 -52 0
-48 -53 0
-48 -54 0
-48 -55 0
-48 -56 0
-48 -57 0
-48 -58 0
-48 -59 0
-48 -60 0
-49 -50 0
-49 -51 0
-49 -52 0
-49 -53 0
-49 -54 0
-49 -55 0
-49 -56 0
-49 -57 0
-49 -58 0
-49 -59 0
-49 -60 0
-50 -51 0
-50 -52 0
-50 -53 0
-50 -54 0
-50 -55 0
-50 -56 0
-50 -57 0
-50 -58 0
-50 -59 0
-50 -60 0
-51 -52 0
-51 -53 0
-51 -54 0
-51 -55 0
-51 -56 0
-51 -57 0
-51 -58 0
-51 -59 0
-51 -60 0
-52 -53 0
-52 -54 0
-52 -55 0
-52 -56 0
-52 -57 0
-52 -58 0
-52 -59 0
-52 -60 0
-53 -54 0
-53 -55 0
-53 -56 0
-53 -57 0
-53 -58 0
-53 -59 0
-53 -60 0
-54 -55 0
-54 -56 0
-54 -57 0
-54 -58 0
-54 -59 0
-54 -60 0
-55 -56 0
-55 -57 0
-55 -58 0
-55 -59 0
-55 -60 0
-56 -57 0
-56 -58 0
-56 -59 0
-56 -60 0
-57 -58 0
-57 -59 0
-57 -60 0
-58 -59 0
-58 -60 0
-59 -60 0
61 62 63 64 65 66 67 68 69 70 71 72 73 74 75 0
-61 -62 0
-61 -63 0
-61 -64 0
-61 -65 0
-61 -66 0
-61 -67 0
-61 -68 0
-61 -69 0
-61 -70 0
-61 -71 0
-61 -72 0
-61 -73 0
-61 -74 0
-61 -75 0
-62 -63 0
-62 -64 0
-62 -65 0
-62 -66 0
-62 -67 0
-62 -68 0
-62 -69 0
-62 -70 0
-62 -71 0
-62 -72 0
-62 -73 0
-62 -74 0
-62 -75 0
-63 -64 0
-63 -65 0
-63 -66 0
-63 -67 0
-63 -68 0
-63 -69 0
-63 -70 0
-63 -71 0
-63 -72 0
-63 -73 0
-63 -74 0
-63 -75 0
-64 -65 0
-64 -66 0
-64 -67 0
-64 -68 0
-64 -69 0
-64 -70 0
-64 -71 0
-64 -72 0
-64 -73 0
-64 -74 0
-64 -75 0
-65 -66 0
-65 -67 0
-65 -68 0
-65 -69 0
-65 -70 0
-65 -71 0
-65 -72 0
-65 -73 0
-65 -74 0
-65 -75 0
-66 -67 0
-66 -68 0
-66 -69 0
-66 -70 0
-66 -71 0
-66 -72 0
-66 -73 0
-66 -74 0
-66 -75 0
-67 -68 0
-67 -69 0
-67 -70 0
-67 -71 0
-67 -72 0
-67 -73 0
-67 -74 0
-67 -75 0
-68 -69 0
-68 -70 0
-68 -71 0
-68 -72 0
-68 -73 0
-68 -74 0
-68 -75 0
-69 -70 0
-69 -71 0
-69 -72 0
-69 -73 0
-69 -74 0
-69 -75 0
-70 -71 0
-70 -72 0
-70 -73 0
-70 -74 0
-70 -75 0
-71 -72 0
-71 -73 0
-71 -74 0
-71 -75 0
-72 -73 0
-72 -74 0
-72 -75 0
-73 -74 0
-73 -75 0
-74 -75 0
76 77 78 79 80 81 82 83 84 85 86 87 88 89 90 0
-76 -77 0
-76 -78 0
-76 -79 0
-76 -80 0
-76 -81 0
-76 -82 0
-76 -83 0
-76 -84 0
-76 -85 0
-76 -86 0
-76 -87 0
-76 -88 0
-76 -89 0
-76 -90 0
-77 -78 0
-77 -79 0
-77 -80 0
-77 -81 0
-77 -82 0
-77 -83 0
-77 -84 0
-77 -85 0
-77 -86 0
-77 -87 0
-77 -88 0
-77 -89 0
-77 -90 0
-78 -79 0
-78 -80 0
-78 -81 0
-78 -82 0
-78 -83 0
-78 -84 0
-78 -85 0
-78 -86 0
-78 -87 0
-78 -88 0
-78 -89 0
-78 -90 0
-79 -80 0
-79 -81 0
-79 -82 0
-79 -83 0
-79 -84 0
-79 -85 0
-79 -86 0
-79 -87 0
-79 -88 0
-79 -89 0
-79 -90 0
-80 -81 0
-80 -82 0
-80 -83 0
-80 -84 0
-80 -85 0
-80 -86 0
-80 -87 0
-80 -88 0
-80 -89 0
-80 -90 0
-81 -82 0
-81 -83 0
-81 -84 0
-81 -85 0
-81 -86 0
-81 -87 0
-81 -88 0
-81 -89 0
-81 -90 0
-82 -83 0
-82 -84 0
-82 -85 0
-82 -86 0
-82 -87 0
-82 -88 0
-82 -89 0
-82 -90 0
-83 -84 0
-83 -85 0
-83 -86 0
-83 -87 0
-83 -88 0
-83 -89 0
-83 -90 0
-84 -85 0
-84 -86 0
-84 -87 0
-84 -88 0
-84 -89 0
-84 -90 0
-85 -86 0
-85 -87 0
-85 -88 0
-85 -89 0
-85 -90 0
-86 -87 0
-86 -88 0
-86 -89 0
-86 -90 0
-87 -88 0
-87 -89 0
-87 -90 0
-88 -89 0
-88 -90 0
-89 -90 0
91 92 93 94 95 96 97 98 99 100 101 102 103 104 105 0
-91 -92 0
-91 -93 0
-91 -94 0
-91 -95 0
-91 -96 0
-91 -97 0
-91 -98 0
-91 -99 0
-91 -100 0
-91 -101 0
-91 -102 0
-91 -103 0
-91 -104 0
-91 -105 0
-92 -93 0
-92 -94 0
-92 -95 0
-92 -96 0
-92 -97 0
-92 -98 0
-92 -99 0
-92 -100 0
-92 -101 0
-92 -102 0
-92 -103 0
-92 -104 0
-92 -105 0
-93 -94 0
-93 -95 0
-93 -96 0
-93 -97 0
-93 -98 0
-93 -99 0
-93 -100 0
-93 -101 0
-93 -102 0
-93 -103 0
-93 -104 0
-93 -105 0
-94 -95 0
-94 -96 0
-94 -97 0
-94 -98 0
-94 -99 0
-94 -100 0
-94 -101 0
-94 -102 0
-94 -103 0
-94 -104 0
-94 -105 0
-95 -96 0
-95 -97 0
-95 -98 0
-95 -99 0
-95 -100 0
-95 -101 0
-95 -102 0
-95 -103 0
-95 -104 0
-95 -105 0
-96 -97 0
-96 -98 0
-96 -99 0
-96 -100 0
-96 -101 0
-96 -102 0
-96 -103 0
-96 -104 0
-96 -105 0
-97 -98 0
-97 -99 0
-97 -100 0
-97 -101 0
-97 -102 0
-97 -103 0
-97 -104 0
-97 -105 0
-98 -99 0
-98 -100 0
-98 -101 0
-98 -102 0
-98 -103 0
-98 -104 0
-98 -105 0
-99 -100 0
-99 -101 0
-99 -102 0
-99 -103 0
-99 -104 0
-99 -105 0
-100 -101 0
-100 -102 0
-100 -103 0
-100 -104 0
-100 -105 0
-101 -102 0
-101 -103 0
-101 -104 0
-101 -105 0
-102 -103 0
-102 -104 0
-102 -105 0
-103 -104 0
-103 -105 0
-104 -105 0
106 107 108 109 110 111 112 113 114 115 116 117 118 119 120 0
-106 -107 0
-106 -108 0
-106 -109 0
-106 -110 0
-106 -111 0
-106 -112 0
-106 -113 0
-106 -114 0
-106 -115 0
-106 -116 0
-106 -117 0
-106 -118 0
-106 -119 0
-106 -120 0
-107 -108 0
-107 -109 0
-107 -110 0
-107 -111 0
-107 -112 0
-107 -113 0
-107 -114 0
-107 -115 0
-107 -116 0
-107 -117 0
-107 -118 0
-107 -119 0
-107 -120 0
-108 -109 0
-108 -110 0
-108 -111 0
-108 -112 0
-108 -113 0
-108 -114 0
-108 -115 0
-108 -116 0
-108 -117 0
-108 -118 0
-108 -119 0
-108 -120 0
-109 -110 0
-109 -111 0
-109 -112 0
-109 -113 0
-109 -114 0
-109 -115 0
-109 -116 0
-109 -117 0
-109 -118 0
-109 -119 0
-109 -120 0
-110 -111 0
-110 -112 0
-110 -113 0
-110 -114 0
-110 -115 0
-110 -116 0
-110 -117 0
-110 -118 0
-110 -119 0
-110 -120 0
-111 -112 0
-111 -113 0
-111 -114 0
-111 -115 0
-111 -116 0
-111 -117 0
-111 -118 0
-111 -119 0
-111 -120 0
-112 -113 0
-112 -114 0
-112 -115 0
-112 -116 0
-112 -117 0
-112 -118 0
-112 -119 0
-112 -120 0
-113 -114 0
-113 -115 0
-113 -116 0
-113 -117 0
-113 -118 0
-113 -119 0
-113 -120 0
-114 -115 0
-114 -116 0
-114 -117 0
-114 -118 0
-114 -119 0
-114 -120 0
-115 -116 0
-115 -117 0
-115 -118 0
-115 -119 0
-115 -120 0
-116 -117 0
-116 -118 0
-116 -119 0
-116 -120 0
-117 -118 0
-117 -119 0
-117 -120 0
-118 -119 0
-118 -120 0
-119 -120 0
121 122 123 124 125 126 127 128 129 130 131 132 133 134 135 0
-121 -122 0
-121 -123 0
-121 -124 0
-121 -125 0
-121 -126 0
-121 -127 0
-121 -128 0
-121 -129 0
-121 -130 0
-121 -131 0
-121 -132 0
-121 -133 0
-121 -134 0
-121 -135 0
-122 -123 0
-122 -124 0
-122 -125 0
-122 -126 0
-122 -127 0
-122 -128 0
-122 -129 0
-122 -130 0
-122 -131 0
-122 -132 0
-122 -133 0
-122 -134 0
-122 -135 0
-123 -124 0
-123 -125 0
-123 -126 0
-123 -127 0
-123 -128 0
-123 -129 0
-123 -130 0
-123 -131 0
-123 -132 0
-123 -133 0
-123 -134 0
-123 -135 0
-124 -125 0
-124 -126 0
-124 -127 0
-124 -128 0
-124 -129 0
-124 -130 0
-124 -131 0
-124 -132 0
-124 -133 0
-124 -134 0
-124 -135 0
-125 -126 0
-125 -127 0
-125 -128 0
-125 -129 0
-125 -130 0
-125 -131 0
-125 -132 0
-125 -133 0
-125 -134 0
-125 -135 0
-126 -127 0
-126 -128 0
-126 -129 0
-126 -130 0
-126 -131 0
-126 -132 0
-126 -133 0
-126 -134 0
-126 -135 0
-127 -128 0
-127 -129 0
-127 -130 0
-127 -131 0
-127 -132 0
-127 -133 0
-127 -134 0
-127 -135 0
-128 -129 0
-128 -130 0
-128 -131 0
-128 -132 0
-128 -133 0
-128 -134 0
-128 -135 0
-129 -130 0
-129 -131 0
-129 -132 0
-129 -133 0
-129 -134 0
-129 -135 0
-130 -131 0
-130 -132 0
-130 -133 0
-130 -134 0
-130 -135 0
-131 -132 0
-131 -133 0
-131 -134 0
-131 -135 0
-132 -133 0
-132 -134 0
-132 -135 0
-133 -134 0
-133 -135 0
-134 -135 0
136 137 138 139 140 141 142 143 144 145 146 147 148 149 150 0
-136 -137 0
-136 -138 0
-136 -139 0
-136 -140 0
-136 -141 0
-136 -142 0
-136 -143 0
-136 -144 0
-136 -145 0
-136 -146 0
-136 -147 0
-136 -148 0
-136 -149 0
-136 -150 0
-137 -138 0
-137 -139 0
-137 -140 0
-137 -141 0
-137 -142 0
-137 -143 0
-137 -144 0
-137 -145 0
-137 -146 0
-137 -147 0
-137 -148 0
-137 -149 0
-137 -150 0
-138 -139 0
-138 -140 0
-138 -141 0
-138 -142 0
-138 -143 0
-138 -144 0
-138 -145 0
-138 -146 0
-138 -147 0
-138 -148 0
-138 -149 0
-138 -150 0
-139 -140 0
-139 -141 0
-139 -142 0
-139 -143 0
-139 -144 0
-139 -145 0
-139 -146 0
-139 -147 0
-139 -148 0
-139 -149 0
-139 -150 0
-140 -141 0
-140 -142 0
-140 -143 0
-140 -144 0
-140 -145 0
-140 -146 0
-140 -147 0
-140 -148 0
-140 -149 0
-140 -150 0
-141 -142 0
-141 -143 0
-141 -144 0
-141 -145 0
-141 -146 0
-141 -147 0
-141 -148 0
-141 -149 0
-141 -150 0
-142 -143 0
-142 -144 0
-142 -145 0
-142 -146 0
-142 -147 0
-142 -148 0
-142 -149 0
-142 -150 0
-143 -144 0
-143 -145 0
-143 -146 0
-143 -147 0
-143 -148 0
-143 -149 0
-143 -150 0
-144 -145 0
-144 -146 0
-144 -147 0
-144 -148 0
-144 -149 0
-144 -150 0
-145 -146 0
-145 -147 0
-145 -148 0
-145 -149 0
-145 -150 0
-146 -147 0
-146 -148 0
-146 -149 0
-146 -150 0
-147 -148 0
-147 -149 0
-147 -150 0
-148 -149 0
-148 -150 0
-149 -150 0
151 152 153 154 155 156 157 158 159 160 161 162 163 164 165 0
-151 -152 0
-151 -153 0
-151 -154 0
-151 -155 0
-151 -156 0
-151 -157 0
-151 -158 0
-151 -159 0
-151 -160 0
-151 -161 0
-151 -162 0
-151 -163 0
-151 -164 0
-151 -165 0
-152 -153 0
-152 -154 0
-152 -155 0
-152 -156 0
-152 -157 0
-152 -158 0
-152 -159 0
-152 -160 0
-152 -161 0
-152 -162 0
-152 -163 0
-152 -164 0
-152 -165 0
-153 -154 0
-153 -155 0
-153 -156 0
-153 -157 0
-153 -158 0
-153 -159 0
-153 -160 0
-153 -161 0
-153 -162 0
-153 -163 0
-153 -164 0
-153 -165 0
-154 -155 0
-154 -156 0
-154 -157 0
-154 -158 0
-154 -159 0
-154 -160 0
-154 -161 0
-154 -162 0
-154 -163 0
-154 -164 0
-154 -165 0
-155 -156 0
-155 -157 0
-155 -158 0
-155 -159 0
-155 -160 0
-155 -161 0
-155 -162 0
-155 -163 0
-155 -164 0
-155 -165 0
-156 -157 0
-156 -158 0
-156 -159 0
-156 -160 0
-156 -161 0
-156 -162 0
-156 -163 0
-156 -164 0
-156 -165 0
-157 -158 0
-157 -159 0
-157 -160 0
-157 -161 0
-157 -162 0
-157 -163 0
-157 -164 0
-157 -165 0
-158 -159 0
-158 -160 0
-158 -161 0
-158 -162 0
-158 -163 0
-158 -164 0
-158 -165 0
-159 -160 0
-159 -161 0
-159 -162 0
-159 -163 0
-159 -164 0
-159 -165 0
-160 -161 0
-160 -162 0
-160 -163 0
-160 -164 0
-160 -165 0
-161 -162 0
-161 -163 0
-161 -164 0
-161 -165 0
-162 -163 0
-162 -164 0
-162 -165 0
-163 -164 0
-163 -165 0
-164 -165 0
166 167 168 169 170 171 172 173 174 175 176 177 178 179 180 0
-166 -167 0
-166 -168 0
-166 -169 0
-166 -170 0
-166 -171 0
-166 -172 0
-166 -173 0
-166 -174 0
-166 -175 0
-166 -176 0
-166 -177 0
-166 -178 0
-166 -179 0
-166 -180 0
-167 -168 0
-167 -169 0
-167 -170 0
-167 -171 0
-167 -172 0
-167 -173 0
-167 -174 0
-167 -175 0
-167 -176 0
-167 -177 0
-167 -178 0
-167 -179 0
-167 -180 0
-168 -169 0
-168 -170 0
-168 -171 0
-168 -172 0
-168 -173 0
-168 -174 0
-168 -175 0
-168 -176 0
-168 -177 0
-168 -178 0
-168 -179 0
-168 -180 0
-169 -170 0
-169 -171 0
-169 -172 0
-169 -173 0
-169 -174 0
-169 -175 0
-169 -176 0
-169 -177 0
-169 -178 0
-169 -179 0
-169 -180 0
-170 -171 0
-170 -172 0
-170 -173 0
-170 -174 0
-170 -175 0
-170 -176 0
-170 -177 0
-170 -178 0
-170 -179 0
-170 -180 0
-171 -172 0
-171 -173 0
-171 -174 0
-171 -175 0
-171 -176 0
-171 -177 0
-171 -178 0
-171 -179 0
-171 -180 0
-172 -173 0
-172 -174 0
-172 -175 0
-172 -176 0
-172 -177 0
-172 -178 0
-172 -179 0
-172 -180 0
-173 -174 0
-173 -175 0
-173 -176 0
-173 -177 0
-173 -178 0
-173 -179 0
-173 -180 0
-174 -175 0
-174 -176 0
-174 -177 0
-174 -178 0
-174 -179 0
-174 -180 0
-175 -176 0
-175 -177 0
-175 -178 0
-175 -179 0
-175 -180 0
-176 -177 0
-176 -178 0
-176 -179 0
-176 -180 0
-177 -178 0
-177 -179 0
-177 -180 0
-178 -179 0
-178 -180 0
-179 -180 0
181 182 183 184 185 186 187 188 189 190 191 192 193 194 195 0
-181 -182 0
-181 -183 0
-181 -184 0
-181 -185 0
-181 -186 0
-181 -187 0
-181 -188 0
-181 -189 0
-181 -190 0
-181 -191 0
-181 -192 0
-181 -193 0
-181 -194 0
-181 -195 0
-182 -183 0
-182 -184 0
-182 -185 0
-182 -186 0
-182 -187 0
-182 -188 0
-182 -189 0
-182 -190 0
-182 -191 0
-182 -192 0
-182 -193 0
-182 -194 0
-182 -195 0
-183 -184 0
-183 -185 0
-183 -186 0
-183 -187 0
-183 -188 0
-183 -189 0
-183 -190 0
-183 -191 0
-183 -192 0
-183 -193 0
-183 -194 0
-183 -195 0
-184 -185 0
-184 -186 0
-184 -187 0
-184 -188 0
-184 -189 0
-184 -190 0
-184 -191 0
-184 -192 0
-184 -193 0
-184 -194 0
-184 -195 0
-185 -186 0
-185 -187 0
-185 -188 0
-185 -189 0
-185 -190 0
-185 -191 0
-185 -192 0
-185 -193 0
-185 -194 0
-185 -195 0
-186 -187 0
-186 -188 0
-186 -189 0
-186 -190 0
-186 -191 0
-186 -192 0
-186 -193 0
-186 -194 0
-186 -195 0
-187 -188 0
-187 -189 0
-187 -190 0
-187 -191 0
-187 -192 0
-187 -193 0
-187 -194 0
-187 -195 0
-188 -189 0
-188 -190 0
-188 -191 0
-188 -192 0
-188 -193 0
-188 -194 0
-188 -195 0
-189 -190 0
-189 -191 0
-189 -192 0
-189 -193 0
-189 -194 0
-189 -195 0
-190 -191 0
-190 -192 0
-190 -193 0
-190 -194 0
-190 -195 0
-191 -192 0
-191 -193 0
-191 -194 0
-191 -195 0
-192 -193 0
-192 -194 0
-192 -195 0
-193 -194 0
-193 -195 0
-194 -195 0
196 197 198 199 200 201 202 203 204 205 206 207 208 209 210 0
-196 -197 0
-196 -198 0
-196 -199 0
-196 -200 0
-196 -201 0
-196 -202 0
-196 -203 0
-196 -204 0
-196 -205 0
-196 -206 0
-196 -207 0
-196 -208 0
-196 -209 0
-196 -210 0
-197 -198 0
-197 -199 0
-197 -200 0
-197 -201 0
-197 -202 0
-197 -203 0
-197 -204 0
-197 -205 0
-197 -206 0
-197 -207 0
-197 -208 0
-197 -209 0
-197 -210 0
-198 -199 0
-198 -200 0
-198 -201 0
-198 -202 0
-198 -203 0
-198 -204 0
-198 -205 0
-198 -206 0
-198 -207 0
-198 -208 0
-198 -209 0
-198 -210 0
-199 -200 0
-199 -201 0
-199 -202 0
-199 -203 0
-199 -204 0
-199 -205 0
-199 -206 0
-199 -207 0
-199 -208 0
-199 -209 0
-199 -210 0
-200 -201 0
-200 -202 0
-200 -203 0
-200 -204 0
-200 -205 0
-200 -206 0
-200 -207 0
-200 -208 0
-200 -209 0
-200 -210 0
-201 -202 0
-201 -203 0
-201 -204 0
-201 -205 0
-201 -206 0
-201 -207 0
-201 -208 0
-201 -209 0
-201 -210 0
-202 -203 0
-202 -204 0
-202 -205 0
-202 -206 0
-202 -207 0
-202 -208 0
-202 -209 0
-202 -210 0
-203 -204 0
-203 -205 0
-203 -206 0
-203 -207 0
-203 -208 0
-203 -209 0
-203 -210 0
-204 -205 0
-204 -206 0
-204 -207 0
-204 -208 0
-204 -209 0
-204 -210 0
-205 -206 0
-205 -207 0
-205 -208 0
-205 -209 0
-205 -210 0
-206 -207 0
-206 -208 0
-206 -209 0
-206 -210 0
-207 -208 0
-207 -209 0
-207 -210 0
-208 -209 0
-208 -210 0
-209 -210 0
1 15 16 30 31 45 46 60 61 75 76 90 91 105 106 120 121 135 136 150 151 165 166 180 181 195 196 210 0
1 8 16 23 31 38 46 53 61 68 76 83 91 98 106 113 121 128 136 143 151 158 166 173 181 188 196 203 0
1 6 11 16 21 26 31 36 41 46 51 56 61 66 71 76 81 86 91 96 101 106 111 116 121 126 131 0
1 12 16 27 31 42 46 57 61 72 76 87 91 102 113 117 128 132 143 147 158 162 173 177 188 192 203 207 0
1 4 7 10 13 16 19 22 25 28 31 34 37 40 43 46 49 52 55 58 61 64 67 70 73 0
1 6 11 16 21 26 31 36 41 46 51 56 138 143 148 153 158 163 168 173 178 183 188 193 198 203 208 0
1 3 16 18 31 33 46 48 63 65 78 80 93 95 108 110 125 127 140 142 155 157 170 172 187 189 202 204 0
1 14 16 29 31 44 57 59 72 74 87 89 102 104 115 117 130 132 145 147 158 160 173 175 188 190 203 205 0
1 6 11 16 21 26 31 36 41 94 99 104 109 114 119 124 129 134 139 144 149 154 159 164 169 174 179 0
1 4 7 10 13 16 19 22 25 28 167 170 173 176 179 182 185 188 191 194 197 200 203 206 209 0
1 5 16 20 35 39 50 54 65 69 84 88 99 103 107 118 122 133 137 148 152 156 167 171 182 186 201 205 0
1 6 11 16 21 26 62 67 72 77 82 87 92 97 102 107 112 117 122 127 132 183 188 193 198 203 208 0
1 9 16 24 32 39 47 54 62 70 77 85 93 100 108 115 123 131 138 146 153 161 169 176 184 191 199 207 0
1 2 16 17 32 33 47 48 63 64 78 79 94 95 109 110 125 126 140 141 156 157 171 172 187 188 202 203 0
1 2 3 4 5 6 7 8 9 10 11 12 13 14 15 0
1 15 29 30 44 45 58 59 73 74 87 88 102 103 116 117 131 132 145 146 159 160 174 175 188 189 203 204 0
1 8 23 30 38 45 52 60 67 75 82 89 96 104 111 119 126 133 141 148 155 163 170 177 185 192 199 207 0
1 6 11 50 55 60 65 70 75 80 85 90 124 129 134 139 144 149 154 159 164 183 188 193 198 203 208 0
1 12 23 27 38 42 49 53 64 75 79 90 101 105 112 116 127 131 138 142 153 164 168 179 190 194 201 205 0
1 4 7 10 13 78 81 84 87 90 93 96 99 102 105 108 111 114 117 120 197 200 203 206 209 0
1 6 11 33 38 43 48 53 58 63 68 73 95 100 105 110 115 120 125 130 135 167 172 177 182 187 192 0
1 3 18 20 35 37 52 54 67 69 84 86 101 103 118 120 133 135 137 150 152 154 169 171 184 186 201 203 0
1 14 27 29 40 42 53 55 68 70 81 83 94 96 107 109 122 135 137 150 163 165 176 178 189 191 202 204 0
1 6 11 34 39 44 49 54 59 92 97 102 107 112 117 140 145 150 155 160 165 170 175 180 198 203 208 0
1 4 7 10 13 62 65 68 71 74 77 80 83 86 89 153 156 159 162 165 168 171 174 177 180 0
1 5 20 24 39 43 47 58 62 66 81 85 100 104 108 119 123 127 138 142 157 161 176 180 184 195 199 203 0
1 6 11 32 37 42 47 52 57 78 83 88 93 98 103 124 129 134 139 144 149 170 175 180 185 190 195 0
1 9 17 24 32 40 48 55 63 71 79 86 94 102 110 117 125 133 141 148 156 164 172 179 187 195 203 210 0
2 18 34 50 66 82 98 114 130 146 162 178 194 210 0
196 197 198 199 200 201 202 203 204 205 206 207 208 209 210 0
14 15 28 29 42 43 56 57 70 71 84 85 98 99 112 113 126 127 140 141 154 155 168 169 182 183 196 197 0
8 15 22 30 37 44 51 59 66 73 80 88 95 102 109 117 124 131 138 145 152 160 167 174 181 189 196 203 0
20 25 30 35 40 45 64 69 74 79 84 89 108 113 118 137 142 147 152 157 162 181 186 191 196 201 206 0
8 12 19 23 34 45 56 60 67 71 78 89 100 104 111 115 122 126 137 148 159 163 166 170 181 192 203 207 0
48 51 54 57 60 107 110 113 116 119 122 125 128 131 134 166 169 172 175 178 181 184 187 190 193 0
18 23 28 33 38 43 65 70 75 92 97 102 107 112 117 124 129 134 139 144 149 166 171 176 198 203 208 0
3 5 20 22 37 39 56 58 73 75 77 90 92 94 111 113 128 130 145 147 151 164 166 168 183 185 200 202 0
12 14 25 27 38 40 49 51 62 64 77 90 101 103 114 116 127 129 138 140 151 153 166 179 190 192 203 205 0
19 24 29 47 52 57 62 67 72 80 85 90 95 100 105 123 128 133 151 156 161 184 189 194 199 204 209 0
32 35 38 41 44 47 50 53 56 59 93 96 99 102 105 151 154 157 160 163 197 200 203 206 209 0
5 9 24 28 32 36 51 55 63 74 78 82 97 101 109 120 124 128 136 147 151 155 170 174 182 193 197 201 0
17 22 27 48 53 58 79 84 89 110 115 120 136 141 146 151 156 161 167 172 177 182 187 192 198 203 208 0
2 9 17 25 33 41 49 56 65 72 80 88 96 104 112 119 128 135 136 143 152 159 167 175 183 191 199 206 0
2 3 19 20 35 36 52 53 68 69 85 86 101 102 118 119 134 135 136 137 152 153 169 170 185 186 202 203 0
136 137 138 139 140 141 142 143 144 145 146 147 148 149 150 0
14 15 27 28 41 42 54 55 68 69 81 82 94 95 108 109 121 122 136 150 163 164 176 177 190 191 203 204 0
8 15 22 29 36 44 50 58 64 72 79 86 93 100 107 115 121 129 143 150 157 165 171 179 185 193 200 207 0
20 25 30 49 54 59 63 68 73 78 83 88 92 97 102 121 126 131 155 160 165 184 189 194 198 203 208 0
8 12 19 30 37 41 48 52 70 74 77 81 92 103 110 114 121 132 143 147 154 165 172 176 183 187 205 209 0
33 36 39 42 45 77 80 83 86 89 121 124 127 130 133 168 171 174 177 180 197 200 203 206 209 0
18 23 28 35 40 45 62 67 72 94 99 104 106 111 116 121 126 131 138 143 148 170 175 180 197 202 207 0
3 5 22 24 41 43 47 60 62 64 81 83 100 102 106 119 123 125 140 142 159 161 178 180 182 184 201 203 0
12 14 23 25 34 36 47 60 71 73 84 86 95 97 106 108 132 134 143 145 154 156 167 169 193 195 204 206 0
19 24 29 32 37 42 65 70 75 78 83 88 106 111 116 139 144 149 152 157 162 185 190 195 198 203 208 0
32 35 38 41 44 63 66 69 72 75 106 109 112 115 118 152 155 158 161 164 183 186 189 192 195 0
5 9 17 28 36 40 48 59 67 71 79 90 98 102 106 110 129 133 137 141 160 164 168 172 191 195 199 203 0
17 22 27 33 38 43 64 69 74 80 85 90 106 111 116 122 127 132 153 158 163 169 174 179 200 205 210 0
2 18 34 50 66 82 98 114 130 146 162 178 194 210 0
3 4 20 21 37 38 54 55 71 72 88 89 91 105 107 108 124 125 141 142 158 159 175 176 192 193 209 210 0
91 92 93 94 95 96 97 98 99 100 101 102 103 104 105 0
13 14 26 27 39 40 52 53 65 66 78 79 91 92 119 120 132 133 144 145 157 158 170 171 183 184 196 197 0
7 15 21 29 35 43 49 57 63 71 77 85 91 99 112 120 126 134 140 148 154 162 168 176 182 190 196 204 0
5 10 15 34 39 44 48 53 58 91 96 101 110 115 120 139 144 149 153 158 163 167 172 177 196 201 206 0
4 8 26 30 33 37 55 59 62 73 80 84 91 102 109 113 131 135 138 149 156 160 167 178 185 189 196 207 0
18 21 24 27 30 91 94 97 100 103 123 126 129 132 135 152 155 158 161 164 181 184 187 190 193 0
3 8 13 35 40 45 47 52 57 64 69 74 91 96 101 108 113 118 125 130 135 169 174 179 181 186 191 0
5 7 24 26 43 45 49 51 68 70 87 89 93 95 112 114 131 133 137 139 156 158 175 177 181 183 200 202 0
10 12 21 23 32 45 56 58 67 69 76 78 102 104 113 115 122 124 148 150 159 161 168 170 181 194 205 207 0
4 9 14 50 55 60 63 68 73 76 81 86 122 127 132 140 145 150 153 158 163 181 186 191 199 204 209 0
17 20 23 26 29 48 51 54 57 60 76 79 82 85 88 107 110 113 116 119 138 141 144 147 150 0
9 13 17 21 33 44 52 56 64 68 76 87 99 103 107 111 123 134 142 146 154 165 166 177 185 189 197 201 0
2 7 12 49 54 59 65 70 75 76 81 86 92 97 102 139 144 149 155 160 165 166 171 176 182 187 192 0
2 10 19 26 35 42 51 59 67 75 76 84 92 100 109 116 125 132 141 149 157 165 166 174 182 190 199 206 0
3 4 21 22 38 39 56 57 73 74 76 77 93 94 111 112 128 129 146 147 164 165 166 167 184 185 201 202 0
76 77 78 79 80 81 82 83 84 85 86 87 88 89 90 0
13 14 25 26 38 39 50 51 62 63 76 90 102 103 115 116 127 128 139 140 152 153 179 180 191 192 204 205 0
7 15 21 28 35 42 48 56 62 69 76 83 97 104 110 118 124 132 138 145 151 159 173 180 186 194 200 207 0
5 10 15 19 24 29 33 38 43 95 100 105 109 114 119 123 128 133 137 142 147 151 156 161 170 175 180 0
4 8 22 26 40 44 47 51 65 69 83 87 101 105 108 112 126 130 144 148 151 155 169 173 187 191 205 209 0
18 21 24 27 30 93 96 99 102 105 122 125 128 131 134 151 154 157 160 163 183 186 189 192 195 0
3 8 13 20 25 30 32 37 42 49 54 59 139 144 149 151 156 161 168 173 178 185 190 195 197 202 207 0
5 7 26 28 32 34 53 55 61 74 78 80 99 101 107 120 126 128 147 149 153 155 172 174 193 195 199 201 0
10 12 19 21 43 45 52 54 61 63 85 87 94 96 107 120 129 131 138 140 162 164 171 173 182 195 204 206 0
4 9 14 17 22 27 35 40 45 48 53 58 61 66 71 79 84 89 92 97 102 110 115 120 123 128 133 0
17 20 23 26 29 61 64 67 70 73 92 95 98 101 104 136 139 142 145 148 167 170 173 176 179 0
9 13 21 25 33 37 49 60 61 72 84 88 96 100 108 112 124 135 136 147 159 163 171 175 183 187 199 210 0
2 7 12 18 23 28 34 39 44 50 55 60 61 66 71 77 82 87 93 98 103 109 114 119 125 130 135 136 141 146 152 157 162 168 173 178 184 189 194 200 205 210 0
3 10 19 27 36 43 52 60 61 69 78 85 94 102 111 118 127 135 136 144 153 160 169 177 186 193 202 210 0
4 5 22 23 40 41 58 59 61 62 79 80 97 98 115 116 133 134 136 137 154 155 172 173 190 191 208 209 0
61 62 63 64 65 66 67 68 69 70 71 72 73 74 75 0
12 13 24 25 36 37 48 49 61 75 87 88 99 100 110 111 122 123 149 150 161 162 173 174 185 186 197 198 0
7 14 20 28 34 41 47 55 61 68 81 89 95 102 108 116 122 129 143 150 156 164 169 177 183 190 196 204 0
5 10 15 19 24 29 33 38 43 47 52 57 140 145 150 154 159 164 168 173 178 182 187 192 196 201 206 0
4 15 18 22 36 40 54 58 68 72 86 90 93 104 107 111 121 125 139 143 157 161 175 179 189 193 196 207 0
32 35 38 41 44 78 81 84 87 90 121 124 127 130 133 167 170 173 176 179 196 199 202 205 208 0
3 8 13 20 25 30 32 37 42 92 97 102 109 114 119 121 126 131 138 143 148 155 160 165 167 172 177 0
7 9 28 30 36 38 57 59 63 65 86 88 92 94 113 115 121 123 142 144 163 165 171 173 192 194 198 200 0
8 10 17 19 39 41 48 50 72 74 79 81 103 105 110 112 121 134 143 145 152 165 174 176 183 185 205 207 0
4 9 14 17 22 27 64 69 74 77 82 87 95 100 105 108 113 118 121 126 131 181 186 191 199 204 209 0
33 36 39 42 45 77 80 83 86 89 93 96 99 102 105 137 140 143 146 149 181 184 187 190 193 0
2 13 25 29 41 45 53 57 69 73 81 85 97 101 109 113 125 129 137 141 153 157 169 180 181 185 197 208 0
2 7 12 46 51 56 62 67 72 78 83 88 94 99 104 138 143 148 154 159 164 170 175 180 181 186 191 0
3 10 20 27 36 44 46 53 62 70 79 87 96 103 113 120 122 129 139 146 156 163 172 180 182 189 198 206 0
4 5 23 24 41 42 46 60 63 64 82 83 101 102 119 120 123 124 141 142 160 161 179 180 182 183 201 202 0
46 47 48 49 50 51 52 53 54 55 56 57 58 59 60 0
12 13 23 24 35 36 46 47 72 73 84 85 95 96 106 107 133 134 144 145 155 156 167 168 193 194 204 205 0
7 14 20 27 33 40 46 54 67 74 80 87 93 101 106 114 127 134 140 148 153 161 166 174 187 195 200 208 0
5 10 15 32 37 42 46 51 56 65 70 75 92 97 102 106 111 116 125 130 135 166 171 176 185 190 195 0
4 15 18 29 32 43 46 57 64 75 78 89 92 103 106 117 124 135 138 149 152 163 166 177 184 195 198 209 0
46 49 52 55 58 106 109 112 115 118 123 126 129 132 135 166 169 172 175 178 183 186 189 192 195 0
3 8 13 34 39 44 46 51 56 94 99 104 106 111 116 137 142 147 154 159 164 166 171 176 197 202 207 0
7 9 17 30 38 40 46 48 69 71 77 79 100 102 106 108 129 131 137 139 160 162 168 170 191 193 199 201 0
8 10 17 30 37 39 46 59 66 68 88 90 95 97 117 119 124 126 148 150 155 157 177 179 184 186 206 208 0
4 9 14 33 38 43 46 51 56 80 85 90 93 98 103 122 127 132 140 145 150 169 174 179 182 187 192 0
46 49 52 55 58 62 65 68 71 74 122 125 128 131 134 138 141 144 147 150 198 201 204 207 210 0
2 18 34 50 66 82 98 114 130 146 162 178 194 210 0
19 24 29 35 40 45 63 68 73 79 84 89 107 112 117 123 128 133 151 156 161 167 172 177 200 205 210 0
3 11 20 28 37 45 47 54 64 71 81 88 98 105 107 115 124 132 141 149 151 158 168 175 185 192 202 209 0
5 6 24 25 43 44 47 48 66 67 85 86 104 105 108 109 127 128 147 148 151 152 170 171 189 190 208 209 0
151 152 153 154 155 156 157 158 159 160 161 162 163 164 165 0
11 12 22 23 33 34 59 60 70 71 80 81 91 92 117 118 128 129 139 140 151 165 175 176 186 187 197 198 0
6 14 19 27 32 40 53 60 65 73 78 86 91 99 112 119 125 132 137 145 158 165 171 178 184 191 197 204 0
18 23 28 32 37 42 64 69 74 91 96 101 110 115 120 123 128 133 137 142 147 169 174 179 196 201 206 0
11 15 25 29 39 43 49 53 63 67 77 81 91 95 116 120 130 134 144 148 154 158 168 172 182 186 196 200 0
3 6 9 12 15 77 80 83 86 89 91 94 97 100 103 108 111 114 117 120 196 199 202 205 208 0
17 22 27 48 53 58 65 70 75 79 84 89 91 96 101 122 127 132 153 158 163 184 189 194 196 201 206 0
9 11 17 19 42 44 50 52 73 75 83 85 91 93 116 118 124 126 147 149 157 159 167 180 188 190 198 200 0
6 8 28 30 33 35 55 57 62 75 82 84 91 104 109 111 131 133 136 138 158 160 167 180 185 187 207 209 0
20 25 30 49 54 59 78 83 88 107 112 117 136 141 146 154 159 164 170 175 180 183 188 193 199 204 209 0
2 5 8 11 14 107 110 113 116 119 123 126 129 132 135 136 139 142 145 148 152 155 158 161 164 0
2 6 22 26 38 42 47 58 63 74 79 83 95 99 115 119 131 135 136 140 152 156 172 176 188 192 197 208 0
19 24 29 47 52 57 80 85 90 108 113 118 136 141 146 153 158 163 169 174 179 181 186 191 197 202 207 0
3 11 21 28 38 45 48 55 65 72 82 90 92 100 109 117 127 134 136 144 154 161 171 179 181 188 198 206 0
5 6 25 26 44 45 49 50 69 70 88 89 93 94 112 113 132 133 137 138 156 157 176 177 181 182 200 201 0
181 182 183 184 185 186 187 188 189 190 191 192 193 194 195 0
11 12 21 22 31 32 57 58 67 68 77 78 103 104 113 114 123 124 149 150 159 160 169 170 181 195 205 206 0
6 14 19 26 31 39 52 59 64 72 77 84 97 104 110 117 122 130 142 150 155 163 168 175 188 195 200 208 0
18 23 28 31 36 41 63 68 73 95 100 105 108 113 118 122 127 132 140 145 150 167 172 177 199 204 209 0
11 15 21 25 31 35 56 60 70 74 80 84 94 105 115 119 125 129 139 143 153 164 174 178 184 188 198 209 0
3 6 9 12 15 17 20 23 26 29 31 34 37 40 43 48 51 54 57 60 62 65 68 71 74 0
17 22 27 31 36 41 62 67 72 76 81 86 107 112 117 138 143 148 152 157 162 183 188 193 197 202 207 0
9 11 19 21 31 44 54 56 64 66 76 89 99 101 109 111 121 134 142 144 152 154 177 179 187 189 197 199 0
6 8 26 28 31 33 51 53 71 73 76 78 96 98 116 118 121 123 141 143 161 163 166 168 186 188 206 208 0
20 25 30 31 36 41 65 70 75 76 81 86 110 115 120 121 126 131 155 160 165 166 171 176 200 205 210 0
2 5 8 11 14 18 21 24 27 30 31 34 37 40 43 47 50 53 56 59 63 66 69 72 75 76 79 82 85 88 92 95 98 101 104 108 111 114 117 120 121 124 127 130 133 137 140 143 146 149 153 156 159 162 165 166 169 172 175 178 182 185 188 191 194 198 201 204 207 210 0
6 10 26 30 31 35 51 55 71 75 76 80 96 100 116 120 121 125 141 145 161 165 166 170 186 190 206 210 0
3 8 13 31 36 41 48 53 58 76 81 86 93 98 103 121 126 131 138 143 148 166 171 176 183 188 193 0
4 11 21 29 31 39 49 56 66 74 76 84 94 101 111 119 121 129 139 147 157 164 167 174 184 192 202 209 0
6 7 26 27 31 32 51 52 71 72 76 77 96 97 117 118 122 123 142 143 162 163 167 168 187 188 207 208 0
31 32 33 34 35 36 37 38 39 40 41 42 43 44 45 0
10 11 20 21 31 45 55 56 64 65 89 90 99 100 109 110 134 135 143 144 153 154 178 179 188 189 198 199 0
6 13 18 26 31 38 51 58 63 70 83 90 95 103 108 115 127 135 140 147 152 160 172 180 184 192 197 204 0
4 9 14 31 36 41 49 54 59 62 67 72 94 99 104 107 112 117 125 130 135 170 175 180 183 188 193 0
7 11 17 21 31 42 48 52 62 73 83 87 93 104 114 118 124 128 145 149 155 159 169 180 186 190 196 200 0
3 6 9 12 15 17 20 23 26 29 168 171 174 177 180 182 185 188 191 194 196 199 202 205 208 0
5 10 15 50 55 60 64 69 74 78 83 88 123 128 133 137 142 147 151 156 161 182 187 192 196 201 206 0
11 13 21 23 33 35 58 60 70 72 80 82 92 105 117 119 127 129 139 141 151 164 174 176 186 188 196 198 0
4 6 24 26 42 44 47 49 65 67 85 87 103 105 108 110 126 128 146 148 151 153 169 171 189 191 207 209 0
2 7 12 47 52 57 63 68 73 79 84 89 95 100 105 140 145 150 151 156 161 167 172 177 183 188 193 0
2 5 8 11 14 106 109 112 115 118 122 125 128 131 134 138 141 144 147 150 151 154 157 160 163 0
6 10 19 30 35 39 48 59 64 68 77 88 93 97 106 117 122 126 146 150 155 159 175 179 184 188 204 208 0
3 8 13 20 25 30 65 70 75 77 82 87 94 99 104 106 111 116 123 128 133 185 190 195 197 202 207 0
4 11 22 29 32 39 50 57 68 75 78 85 96 103 106 113 124 131 142 149 152 159 170 177 188 195 198 205 0
6 7 27 28 32 33 53 54 74 75 79 80 100 101 106 107 126 127 147 148 153 154 173 174 194 195 200 201 0
106 107 108 109 110 111 112 113 114 115 116 117 118 119 120 0
10 11 19 20 43 44 53 54 62 63 86 87 95 96 106 120 129 130 138 139 163 164 172 173 181 182 205 206 0
6 13 18 25 37 45 49 57 62 69 81 89 93 101 113 120 125 133 137 145 157 164 169 176 181 189 201 208 0
4 9 14 17 22 27 35 40 45 48 53 58 137 142 147 155 160 165 168 173 178 181 186 191 199 204 209 0
7 11 17 28 34 38 55 59 61 65 86 90 92 96 113 117 123 134 140 144 161 165 171 175 181 192 198 202 0
3 6 9 12 15 61 64 67 70 73 78 81 84 87 90 153 156 159 162 165 167 170 173 176 179 0
5 10 15 19 24 29 33 38 43 47 52 57 61 66 71 80 85 90 94 99 104 108 113 118 122 127 132 0
11 13 23 25 35 37 47 49 61 74 86 88 98 100 110 112 122 124 136 149 161 163 173 175 185 187 197 199 0
4 6 22 24 40 42 58 60 61 63 79 81 97 99 115 117 133 135 136 138 154 156 172 174 190 192 208 210 0
2 7 12 18 23 28 34 39 44 50 55 60 61 66 71 77 82 87 93 98 103 109 114 119 125 130 135 136 141 146 152 157 162 168 173 178 184 189 194 200 205 210 0
48 51 54 57 60 61 64 67 70 73 123 126 129 132 135 136 139 142 145 148 198 201 204 207 210 0
10 14 19 23 32 43 52 56 61 65 85 89 94 98 107 118 127 131 136 140 160 164 169 173 182 193 202 206 0
3 8 13 20 25 30 32 37 42 49 54 59 61 66 71 78 83 88 95 100 105 107 112 117 124 129 134 0
4 12 22 30 33 40 51 58 61 69 79 87 97 105 108 116 126 134 137 144 155 162 173 180 183 191 201 209 0
7 8 28 29 34 35 55 56 61 62 83 84 104 105 110 111 131 132 137 138 158 159 166 180 186 187 207 208 0
166 167 168 169 170 171 172 173 174 175 176 177 178 179 180 0
9 10 18 19 42 43 51 52 74 75 83 84 92 93 116 117 124 125 148 149 157 158 166 167 189 190 198 199 0
5 13 17 25 37 44 48 56 68 75 80 87 92 99 111 118 123 130 142 150 154 161 166 173 185 193 197 205 0
4 9 14 17 22 27 35 40 45 91 96 101 109 114 119 122 127 132 140 145 150 153 158 163 166 171 176 0
3 7 24 28 41 45 47 51 68 72 85 89 91 95 112 116 129 133 139 150 156 160 173 177 183 194 200 204 0
33 36 39 42 45 47 50 53 56 59 91 94 97 100 103 152 155 158 161 164 196 199 202 205 208 0
5 10 15 19 24 29 63 68 73 77 82 87 91 96 101 110 115 120 124 129 134 182 187 192 196 201 206 0
13 15 25 27 39 41 51 53 65 67 77 79 91 93 118 120 132 134 144 146 156 158 170 172 182 184 196 198 0
2 4 20 22 36 38 54 56 70 72 88 90 91 104 107 109 123 125 141 143 157 159 175 177 191 193 196 209 0
2 7 12 48 53 58 64 69 74 80 85 90 91 96 101 137 142 147 153 158 163 169 174 179 185 190 195 0
32 35 38 41 44 78 81 84 87 90 91 94 97 100 103 137 140 143 146 149 183 186 189 192 195 0
10 14 23 27 32 36 49 60 69 73 82 86 95 99 108 119 121 132 141 145 154 158 167 171 191 195 204 208 0
3 8 13 50 55 60 62 67 72 79 84 89 121 126 131 138 143 148 155 160 165 185 190 195 197 202 207 0
4 12 23 30 33 41 52 59 63 70 81 88 92 99 110 118 121 128 139 147 158 165 168 176 187 194 198 205 0
7 8 29 30 36 37 57 58 64 65 86 87 92 93 114 115 121 122 142 143 164 165 171 172 192 193 199 200 0
121 122 123 124 125 126 127 128 129 130 131 132 133 134 135 0
9 10 17 18 40 41 48 49 72 73 80 81 103 104 111 112 121 135 143 144 151 152 174 175 183 184 206 207 0
5 13 17 24 36 43 47 55 67 74 78 86 97 105 109 116 128 135 140 147 151 159 170 178 182 189 201 208 0
4 9 14 34 39 44 47 52 57 95 100 105 108 113 118 138 143 148 151 156 161 169 174 179 199 204 209 0
3 7 20 24 37 41 54 58 71 75 77 88 94 105 111 115 128 132 145 149 151 162 168 179 181 185 198 202 0
33 36 39 42 45 63 66 69 72 75 107 110 113 116 119 151 154 157 160 163 181 184 187 190 193 0
5 10 15 35 40 45 49 54 59 79 84 89 93 98 103 123 128 133 137 142 147 167 172 177 181 186 191 0
13 15 27 29 41 43 55 57 69 71 83 85 97 99 111 113 125 127 139 141 153 155 167 169 181 183 197 210 0
2 18 34 50 66 82 98 114 130 146 162 178 194 210 0
16 21 26 32 37 42 62 67 72 78 83 88 108 113 118 124 129 134 154 159 164 170 175 180 200 205 210 0
16 19 22 25 28 62 65 68 71 74 92 95 98 101 104 138 141 144 147 150 168 171 174 177 180 0
3 14 16 27 40 44 53 57 66 70 79 83 92 96 109 120 122 133 139 150 152 163 176 180 189 193 202 206 0
16 21 26 33 38 43 63 68 73 80 85 90 110 115 120 140 145 150 152 157 162 182 187 192 199 204 209 0
5 12 16 23 34 42 53 60 64 71 83 90 94 101 112 120 123 131 142 149 153 160 172 179 183 190 201 209 0
8 9 16 30 37 38 59 60 67 68 89 90 96 97 118 119 125 126 148 149 155 156 177 178 184 185 206 207 0
16 17 18 19 20 21 22 23 24 25 26 27 28 29 30 0
8 9 16 17 39 40 46 47 69 70 77 78 100 101 107 108 130 131 138 139 160 161 168 169 191 192 199 200 0
5 12 16 24 35 43 46 54 65 73 77 84 95 103 107 114 126 133 137 144 156 163 167 175 186 193 197 205 0
16 21 26 46 51 56 64 69 74 76 81 86 94 99 104 124 129 134 154 159 164 184 189 194 197 202 207 0
3 14 16 20 33 44 46 50 63 67 76 80 93 97 106 110 123 127 140 144 153 157 170 174 187 191 200 204 0
16 19 22 25 28 46 49 52 55 58 76 79 82 85 88 106 109 112 115 118 136 139 142 145 148 0
16 21 26 46 51 56 76 81 86 106 111 116 136 141 146 155 160 165 166 171 176 185 190 195 196 201 206 0
2 15 16 29 32 45 46 59 62 75 76 89 92 105 106 119 122 135 136 149 152 165 166 179 182 195 196 209 0
16 17 19 20 22 23 25 26 28 29 32 33 35 36 38 39 41 42 44 45 46 48 49 51 52 54 55 57 58 60 61 62 64 65 67 68 70 71 73 74 77 78 80 81 83 84 86 87 89 90 91 93 94 96 97 99 100 102 103 105 106 107 109 110 112 113 115 116 118 119 122 123 125 126 128 129 131 132 134 135 136 138 139 141 142 144 145 147 148 150 151 152 154 155 157 158 160 161 163 164 167 168 170 171 173 174 176 177 179 180 181 183 184 186 187 189 190 192 193 195 196 197 199 200 202 203 205 206 208 209 0
1 3 4 6 7 9 10 12 13 15 32 33 35 36 38 39 41 42 44 45 46 48 49 51 52 54 55 57 58 60 61 62 64 65 67 68 70 71 73 74 77 78 80 81 83 84 86 87 89 90 91 93 94 96 97 99 100 102 103 105 106 107 109 110 112 113 115 116 118 119 122 123 125 126 128 129 131 132 134 135 136 138 139 141 142 144 145 147 148 150 151 152 154 155 157 158 160 161 163 164 167 168 170 171 173 174 176 177 179 180 181 183 184 186 187 189 190 192 193 195 196 197 199 200 202 203 205 206 208 209 0
1 3 4 6 7 9 10 12 13 15 16 17 19 20 22 23 25 26 28 29 46 48 49 51 52 54 55 57 58 60 61 62 64 65 67 68 70 71 73 74 77 78 80 81 83 84 86 87 89 90 91 93 94 96 97 99 100 102 103 105 106 107 109 110 112 113 115 116 118 119 122 123 125 126 128 129 131 132 134 135 136 138 139 141 142 144 145 147 148 150 151 152 154 155 157 158 160 161 163 164 167 168 170 171 173 174 176 177 179 180 181 183 184 186 187 189 190 192 193 195 196 197 199 200 202 203 205 206 208 209 0
1 3 4 6 7 9 10 12 13 15 16 17 19 20 22 23 25 26 28 29 32 33 35 36 38 39 41 42 44 45 61 62 64 65 67 68 70 71 73 74 77 78 80 81 83 84 86 87 89 90 91 93 94 96 97 99 100 102 103 105 106 107 109 110 112 113 115 116 118 119 122 123 125 126 128 129 131 132 134 135 136 138 139 141 142 144 145 147 148 150 151 152 154 155 157 158 160 161 163 164 167 168 170 171 173 174 176 177 179 180 181 183 184 186 187 189 190 192 193 195 196 197 199 200 202 203 205 206 208 209 0
1 3 4 6 7 9 10 12 13 15 16 17 19 20 22 23 25 26 28 29 32 33 35 36 38 39 41 42 44 45 46 48 49 51 52 54 55 57 58 60 77 78 80 81 83 84 86 87 89 90 91 93 94 96 97 99 100 102 103 105 106 107 109 110 112 113 115 116 118 119 122 123 125 126 128 129 131 132 134 135 136 138 139 141 142 144 145 147 148 150 151 152 154 155 157 158 160 161 163 164 167 168 170 171 173 174 176 177 179 180 181 183 184 186 187 189 190 192 193 195 196 197 199 200 202 203 205 206 208 209 0
1 3 4 6 7 9 10 12 13 15 16 17 19 20 22 23 25 26 28 29 32 33 35 36 38 39 41 42 44 45 46 48 49 51 52 54 55 57 58 60 61 62 64 65 67 68 70 71 73 74 91 93 94 96 97 99 100 102 103 105 106 107 109 110 112 113 115 116 118 119 122 123 125 126 128 129 131 132 134 135 136 138 139 141 142 144 145 147 148 150 151 152 154 155 157 158 160 161 163 164 167 168 170 171 173 174 176 177 179 180 181 183 184 186 187 189 190 192 193 195 196 197 199 200 202 203 205 206 208 209 0
1 3 4 6 7 9 10 12 13 15 16 17 19 20 22 23 25 26 28 29 32 33 35 36 38 39 41 42 44 45 46 48 49 51 52 54 55 57 58 60 61 62 64 65 67 68 70 71 73 74 77 78 80 81 83 84 86 87 89 90 106 107 109 110 112 113 115 116 118 119 122 123 125 126 128 129 131 132 134 135 136 138 139 141 142 144 145 147 148 150 151 152 154 155 157 158 160 161 163 164 167 168 170 171 173 174 176 177 179 180 181 183 184 186 187 189 190 192 193 195 196 197 199 200 202 203 205 206 208 209 0
1 3 4 6 7 9 10 12 13 15 16 17 19 20 22 23 25 26 28 29 32 33 35 36 38 39 41 42 44 45 46 48 49 51 52 54 55 57 58 60 61 62 64 65 67 68 70 71 73 74 77 78 80 81 83 84 86 87 89 90 91 93 94 96 97 99 100 102 103 105 122 123 125 126 128 129 131 132 134 135 136 138 139 141 142 144 145 147 148 150 151 152 154 155 157 158 160 161 163 164 167 168 170 171 173 174 176 177 179 180 181 183 184 186 187 189 190 192 193 195 196 197 199 200 202 203 205 206 208 209 0
1 3 4 6 7 9 10 12 13 15 16 17 19 20 22 23 25 26 28 29 32 33 35 36 38 39 41 42 44 45 46 48 49 51 52 54 55 57 58 60 61 62 64 65 67 68 70 71 73 74 77 78 80 81 83 84 86 87 89 90 91 93 94 96 97 99 100 102 103 105 106 107 109 110 112 113 115 116 118 119 136 138 139 141 142 144 145 147 148 150 151 152 154 155 157 158 160 161 163 164 167 168 170 171 173 174 176 177 179 180 181 183 184 186 187 189 190 192 193 195 196 197 199 200 202 203 205 206 208 209 0
1 3 4 6 7 9 10 12 13 15 16 17 19 20 22 23 25 26 28 29 32 33 35 36 38 39 41 42 44 45 46 48 49 51 52 54 55 57 58 60 61 62 64 65 67 68 70 71 73 74 77 78 80 81 83 84 86 87 89 90 91 93 94 96 97 99 100 102 103 105 106 107 109 110 112 113 115 116 118 119 122 123 125 126 128 129 131 132 134 135 151 152 154 155 157 158 160 161 163 164 167 168 170 171 173 174 176 177 179 180 181 183 184 186 187 189 190 192 193 195 196 197 199 200 202 203 205 206 208 209 0
1 3 4 6 7 9 10 12 13 15 16 17 19 20 22 23 25 26 28 29 32 33 35 36 38 39 41 42 44 45 46 48 49 51 52 54 55 57 58 60 61 62 64 65 67 68 70 71 73 74 77 78 80 81 83 84 86 87 89 90 91 93 94 96 97 99 100 102 103 105 106 107 109 110 112 113 115 116 118 119 122 123 125 126 128 129 131 132 134 135 136 138 139 141 142 144 145 147 148 150 167 168 170 171 173 174 176 177 179 180 181 183 184 186 187 189 190 192 193 195 196 197 199 200 202 203 205 206 208 209 0
1 3 4 6 7 9 10 12 13 15 16 17 19 20 22 23 25 26 28 29 32 33 35 36 38 39 41 42 44 45 46 48 49 51 52 54 55 57 58 60 61 62 64 65 67 68 70 71 73 74 77 78 80 81 83 84 86 87 89 90 91 93 94 96 97 99 100 102 103 105 106 107 109 110 112 113 115 116 118 119 122 123 125 126 128 129 131 132 134 135 136 138 139 141 142 144 145 147 148 150 151 152 154 155 157 158 160 161 163 164 181 183 184 186 187 189 190 192 193 195 196 197 199 200 202 203 205 206 208 209 0
1 3 4 6 7 9 10 12 13 15 16 17 19 20 22 23 25 26 28 29 32 33 35 36 38 39 41 42 44 45 46 48 49 51 52 54 55 57 58 60 61 62 64 65 67 68 70 71 73 74 77 78 80 81 83 84 86 87 89 90 91 93 94 96 97 99 100 102 103 105 106 107 109 110 112 113 115 116 118 119 122 123 125 126 128 129 131 132 134 135 136 138 139 141 142 144 145 147 148 150 151 152 154 155 157 158 160 161 163 164 167 168 170 171 173 174 176 177 179 180 196 197 199 200 202 203 205 206 208 209 0
1 3 4 6 7 9 10 12 13 15 16 17 19 20 22 23 25 26 28 29 32 33 35 36 38 39 41 42 44 45 46 48 49 51 52 54 55 57 58 60 61 62 64 65 67 68 70 71 73 74 77 78 80 81 83 84 86 87 89 90 91 93 94 96 97 99 100 102 103 105 106 107 109 110 112 113 115 116 118 119 122 123 125 126 128 129 131 132 134 135 136 138 139 141 142 144 145 147 148 150 151 152 154 155 157 158 160 161 163 164 167 168 170 171 173 174 176 177 179 180 181 183 184 186 187 189 190 192 193 195 0
16 17 19 20 21 22 24 25 26 27 29 30 31 32 33 35 36 37 38 40 41 42 43 45 46 47 48 49 51 52 53 54 56 57 58 59 62 63 64 65 67 68 69 70 72 73 74 75 76 78 79 80 81 83 84 85 86 88 89 90 91 92 94 95 96 97 99 100 101 102 104 105 106 107 108 110 111 112 113 115 116 117 118 120 121 122 123 124 126 127 128 129 131 132 133 134 137 138 139 140 142 143 144 145 147 148 149 150 151 153 154 155 156 158 159 160 161 163 164 165 166 167 169 170 171 172 174 175 176 177 179 180 181 182 183 185 186 187 188 190 191 192 193 195 196 197 198 199 201 202 203 204 206 207 208 209 0
1 3 4 5 6 8 9 10 11 13 14 15 31 32 33 35 36 37 38 40 41 42 43 45 46 47 48 49 51 52 53 54 56 57 58 59 62 63 64 65 67 68 69 70 72 73 74 75 76 78 79 80 81 83 84 85 86 88 89 90 91 92 94 95 96 97 99 100 101 102 104 105 106 107 108 110 111 112 113 115 116 117 118 120 121 122 123 124 126 127 128 129 131 132 133 134 137 138 139 140 142 143 144 145 147 148 149 150 151 153 154 155 156 158 159 160 161 163 164 165 166 167 169 170 171 172 174 175 176 177 179 180 181 182 183 185 186 187 188 190 191 192 193 195 196 197 198 199 201 202 203 204 206 207 208 209 0
1 3 4 5 6 8 9 10 11 13 14 15 16 17 19 20 21 22 24 25 26 27 29 30 46 47 48 49 51 52 53 54 56 57 58 59 62 63 64 65 67 68 69 70 72 73 74 75 76 78 79 80 81 83 84 85 86 88 89 90 91 92 94 95 96 97 99 100 101 102 104 105 106 107 108 110 111 112 113 115 116 117 118 120 121 122 123 124 126 127 128 129 131 132 133 134 137 138 139 140 142 143 144 145 147 148 149 150 151 153 154 155 156 158 159 160 161 163 164 165 166 167 169 170 171 172 174 175 176 177 179 180 181 182 183 185 186 187 188 190 191 192 193 195 196 197 198 199 201 202 203 204 206 207 208 209 0
1 3 4 5 6 8 9 10 11 13 14 15 16 17 19 20 21 22 24 25 26 27 29 30 31 32 33 35 36 37 38 40 41 42 43 45 62 63 64 65 67 68 69 70 72 73 74 75 76 78 79 80 81 83 84 85 86 88 89 90 91 92 94 95 96 97 99 100 101 102 104 105 106 107 108 110 111 112 113 115 116 117 118 120 121 122 123 124 126 127 128 129 131 132 133 134 137 138 139 140 142 143 144 145 147 148 149 150 151 153 154 155 156 158 159 160 161 163 164 165 166 167 169 170 171 172 174 175 176 177 179 180 181 182 183 185 186 187 188 190 191 192 193 195 196 197 198 199 201 202 203 204 206 207 208 209 0
1 3 4 5 6 8 9 10 11 13 14 15 16 17 19 20 21 22 24 25 26 27 29 30 31 32 33 35 36 37 38 40 41 42 43 45 46 47 48 49 51 52 53 54 56 57 58 59 76 78 79 80 81 83 84 85 86 88 89 90 91 92 94 95 96 97 99 100 101 102 104 105 106 107 108 110 111 112 113 115 116 117 118 120 121 122 123 124 126 127 128 129 131 132 133 134 137 138 139 140 142 143 144 145 147 148 149 150 151 153 154 155 156 158 159 160 161 163 164 165 166 167 169 170 171 172 174 175 176 177 179 180 181 182 183 185 186 187 188 190 191 192 193 195 196 197 198 199 201 202 203 204 206 207 208 209 0
1 3 4 5 6 8 9 10 11 13 14 15 16 17 19 20 21 22 24 25 26 27 29 30 31 32 33 35 36 37 38 40 41 42 43 45 46 47 48 49 51 52 53 54 56 57 58 59 62 63 64 65 67 68 69 70 72 73 74 75 91 92 94 95 96 97 99 100 101 102 104 105 106 107 108 110 111 112 113 115 116 117 118 120 121 122 123 124 126 127 128 129 131 132 133 134 137 138 139 140 142 143 144 145 147 148 149 150 151 153 154 155 156 158 159 160 161 163 164 165 166 167 169 170 171 172 174 175 176 177 179 180 181 182 183 185 186 187 188 190 191 192 193 195 196 197 198 199 201 202 203 204 206 207 208 209 0
1 3 4 5 6 8 9 10 11 13 14 15 16 17 19 20 21 22 24 25 26 27 29 30 31 32 33 35 36 37 38 40 41 42 43 45 46 47 48 49 51 52 53 54 56 57 58 59 62 63 64 65 67 68 69 70 72 73 74 75 76 78 79 80 81 83 84 85 86 88 89 90 106 107 108 110 111 112 113 115 116 117 118 120 121 122 123 124 126 127 128 129 131 132 133 134 137 138 139 140 142 143 144 145 147 148 149 150 151 153 154 155 156 158 159 160 161 163 164 165 166 167 169 170 171 172 174 175 176 177 179 180 181 182 183 185 186 187 188 190 191 192 193 195 196 197 198 199 201 202 203 204 206 207 208 209 0
1 3 4 5 6 8 9 10 11 13 14 15 16 17 19 20 21 22 24 25 26 27 29 30 31 32 33 35 36 37 38 40 41 42 43 45 46 47 48 49 51 52 53 54 56 57 58 59 62 63 64 65 67 68 69 70 72 73 74 75 76 78 79 80 81 83 84 85 86 88 89 90 91 92 94 95 96 97 99 100 101 102 104 105 121 122 123 124 126 127 128 129 131 132 133 134 137 138 139 140 142 143 144 145 147 148 149 150 151 153 154 155 156 158 159 160 161 163 164 165 166 167 169 170 171 172 174 175 176 177 179 180 181 182 183 185 186 187 188 190 191 192 193 195 196 197 198 199 201 202 203 204 206 207 208 209 0
1 3 4 5 6 8 9 10 11 13 14 15 16 17 19 20 21 22 24 25 26 27 29 30 31 32 33 35 36 37 38 40 41 42 43 45 46 47 48 49 51 52 53 54 56 57 58 59 62 63 64 65 67 68 69 70 72 73 74 75 76 78 79 80 81 83 84 85 86 88 89 90 91 92 94 95 96 97 99 100 101 102 104 105 106 107 108 110 111 112 113 115 116 117 118 120 137 138 139 140 142 143 144 145 147 148 149 150 151 153 154 155 156 158 159 160 161 163 164 165 166 167 169 170 171 172 174 175 176 177 179 180 181 182 183 185 186 187 188 190 191 192 193 195 196 197 198 199 201 202 203 204 206 207 208 209 0
1 3 4 5 6 8 9 10 11 13 14 15 16 17 19 20 21 22 24 25 26 27 29 30 31 32 33 35 36 37 38 40 41 42 43 45 46 47 48 49 51 52 53 54 56 57 58 59 62 63 64 65 67 68 69 70 72 73 74 75 76 78 79 80 81 83 84 85 86 88 89 90 91 92 94 95 96 97 99 100 101 102 104 105 106 107 108 110 111 112 113 115 116 117 118 120 121 122 123 124 126 127 128 129 131 132 133 134 151 153 154 155 156 158 159 160 161 163 164 165 166 167 169 170 171 172 174 175 176 177 179 180 181 182 183 185 186 187 188 190 191 192 193 195 196 197 198 199 201 202 203 204 206 207 208 209 0
1 3 4 5 6 8 9 10 11 13 14 15 16 17 19 20 21 22 24 25 26 27 29 30 31 32 33 35 36 37 38 40 41 42 43 45 46 47 48 49 51 52 53 54 56 57 58 59 62 63 64 65 67 68 69 70 72 73 74 75 76 78 79 80 81 83 84 85 86 88 89 90 91 92 94 95 96 97 99 100 101 102 104 105 106 107 108 110 111 112 113 115 116 117 118 120 121 122 123 124 126 127 128 129 131 132 133 134 137 138 139 140 142 143 144 145 147 148 149 150 166 167 169 170 171 172 174 175 176 177 179 180 181 182 183 185 186 187 188 190 191 192 193 195 196 197 198 199 201 202 203 204 206 207 208 209 0
1 3 4 5 6 8 9 10 11 13 14 15 16 17 19 20 21 22 24 25 26 27 29 30 31 32 33 35 36 37 38 40 41 42 43 45 46 47 48 49 51 52 53 54 56 57 58 59 62 63 64 65 67 68 69 70 72 73 74 75 76 78 79 80 81 83 84 85 86 88 89 90 91 92 94 95 96 97 99 100 101 102 104 105 106 107 108 110 111 112 113 115 116 117 118 120 121 122 123 124 126 127 128 129 131 132 133 134 137 138 139 140 142 143 144 145 147 148 149 150 151 153 154 155 156 158 159 160 161 163 164 165 181 182 183 185 186 187 188 190 191 192 193 195 196 197 198 199 201 202 203 204 206 207 208 209 0
1 3 4 5 6 8 9 10 11 13 14 15 16 17 19 20 21 22 24 25 26 27 29 30 31 32 33 35 36 37 38 40 41 42 43 45 46 47 48 49 51 52 53 54 56 57 58 59 62 63 64 65 67 68 69 70 72 73 74 75 76 78 79 80 81 83 84 85 86 88 89 90 91 92 94 95 96 97 99 100 101 102 104 105 106 107 108 110 111 112 113 115 116 117 118 120 121 122 123 124 126 127 128 129 131 132 133 134 137 138 139 140 142 143 144 145 147 148 149 150 151 153 154 155 156 158 159 160 161 163 164 165 166 167 169 170 171 172 174 175 176 177 179 180 196 197 198 199 201 202 203 204 206 207 208 209 0
1 3 4 5 6 8 9 10 11 13 14 15 16 17 19 20 21 22 24 25 26 27 29 30 31 32 33 35 36 37 38 40 41 42 43 45 46 47 48 49 51 52 53 54 56 57 58 59 62 63 64 65 67 68 69 70 72 73 74 75 76 78 79 80 81 83 84 85 86 88 89 90 91 92 94 95 96 97 99 100 101 102 104 105 106 107 108 110 111 112 113 115 116 117 118 120 121 122 123 124 126 127 128 129 131 132 133 134 137 138 139 140 142 143 144 145 147 148 149 150 151 153 154 155 156 158 159 160 161 163 164 165 166 167 169 170 171 172 174 175 176 177 179 180 181 182 183 185 186 187 188 190 191 192 193 195 0
-1 0
-3 0
-4 0
-6 0
-9 0
-10 0
-13 0
-15 0
-16 0
-17 0
-19 0
-20 0
-22 0
-25 0
-26 0
-29 0
-32 0
-33 0
-35 0
-36 0
-38 0
-41 0
-42 0
-45 0
-46 0
-48 0
-49 0
-51 0
-52 0
-54 0
-57 0
-58 0
-62 0
-64 0
-65 0
-67 0
-68 0
-70 0
-73 0
-74 0
-78 0
-80 0
-81 0
-83 0
-84 0
-86 0
-89 0
-90 0
-91 0
-94 0
-96 0
-97 0
-99 0
-100 0
-102 0
-105 0
-106 0
-107 0
-110 0
-112 0
-113 0
-115 0
-116 0
-118 0
-122 0
-123 0
-126 0
-128 0
-129 0
-131 0
-132 0
-134 0
-138 0
-139 0
-142 0
-144 0
-145 0
-147 0
-148 0
-150 0
-151 0
-154 0
-155 0
-158 0
-160 0
-161 0
-163 0
-164 0
-167 0
-170 0
-171 0
-174 0
-176 0
-177 0
-179 0
-180 0
-181 0
-183 0
-186 0
-187 0
-190 0
-192 0
-193 0
-195 0
-196 0
-197 0
-199 0
-202 0
-203 0
-206 0
-208 0
-209 0
31 0
